p wcnf 111 222 223 
1 -60 -13 0 
1 12 -57 0 
1 60 -42 0 
1 9 -82 0 
1 -101 -45 0 
1 45 -9 0 
1 -75 87 0 
1 2 -87 0 
1 34 -32 0 
1 -103 -92 0 
1 -107 93 0 
1 5 1 0 
1 -89 65 0 
1 -52 -98 0 
1 -21 -68 0 
1 -89 15 0 
1 78 -47 0 
1 108 -104 0 
1 -42 84 0 
1 4 -46 0 
1 93 108 0 
1 60 33 0 
1 -32 93 0 
1 51 85 0 
1 70 88 0 
1 43 9 0 
1 -23 -9 0 
1 21 -8 0 
1 -98 -32 0 
1 32 29 0 
1 -13 -47 0 
1 -1 -43 0 
1 -89 3 0 
1 57 37 0 
1 70 46 0 
1 -28 15 0 
1 84 6 0 
1 -99 -21 0 
1 53 6 0 
1 -81 88 0 
1 -65 32 0 
1 42 -98 0 
1 67 -16 0 
1 106 -11 0 
1 -57 -58 0 
1 -103 -33 0 
1 73 -76 0 
1 -111 -47 0 
1 -17 29 0 
1 -43 39 0 
1 -46 31 0 
1 110 -34 0 
1 -96 -47 0 
1 97 -3 0 
1 35 61 0 
1 -50 109 0 
1 -74 53 0 
1 -29 -67 0 
1 -30 -88 0 
1 -7 100 0 
1 111 -46 0 
1 103 64 0 
1 -78 72 0 
1 -111 6 0 
1 -35 14 0 
1 -103 -69 0 
1 -17 111 0 
1 53 63 0 
1 -9 -8 0 
1 31 -101 0 
1 13 27 0 
1 1 99 0 
1 -95 61 0 
1 91 -59 0 
1 101 -63 0 
1 88 -100 0 
1 -86 10 0 
1 8 -31 0 
1 -106 16 0 
1 -83 2 0 
1 67 94 0 
1 -24 -7 0 
1 80 -11 0 
1 -86 75 0 
1 -46 108 0 
1 100 109 0 
1 -108 -39 0 
1 34 95 0 
1 -41 31 0 
1 25 30 0 
1 56 -107 0 
1 -50 86 0 
1 76 18 0 
1 -68 35 0 
1 -110 77 0 
1 62 -56 0 
1 29 61 0 
1 108 25 0 
1 45 -24 0 
1 -78 9 0 
1 40 -69 0 
1 -1 -45 0 
1 60 49 0 
1 -86 76 0 
1 1 -15 0 
1 -73 -45 0 
1 -76 11 0 
1 -44 59 0 
1 -30 -75 0 
1 -31 78 0 
1 -105 9 0 
1 85 -22 0 
1 25 67 0 
1 -85 31 0 
1 31 -1 0 
1 -3 110 0 
1 -28 -6 0 
1 -98 -107 0 
1 -9 -96 0 
1 -55 10 0 
1 68 88 0 
1 -17 -35 0 
1 52 -27 0 
1 -68 -32 0 
1 -96 2 0 
1 -78 20 0 
1 -66 -3 0 
1 72 -41 0 
1 -62 -7 0 
1 -15 -106 0 
1 -20 12 0 
1 -40 -30 0 
1 52 -95 0 
1 -73 -67 0 
1 -21 -34 0 
1 -61 -18 0 
1 -41 -101 0 
1 -99 -75 0 
1 -29 37 0 
1 -62 -1 0 
1 78 -30 0 
1 -105 2 0 
1 97 19 0 
1 -99 -58 0 
1 13 105 0 
1 -51 -40 0 
1 101 -7 0 
1 -7 24 0 
1 53 99 0 
1 -95 7 0 
1 48 -93 0 
1 88 -15 0 
1 76 59 0 
1 -21 97 0 
1 -4 103 0 
1 -61 -22 0 
1 -78 25 0 
1 5 10 0 
1 -42 -103 0 
1 -14 111 0 
1 21 -97 0 
1 45 54 0 
1 -80 85 0 
1 74 26 0 
1 30 -43 0 
1 60 -40 0 
1 65 -5 0 
1 -88 -67 0 
1 101 -51 0 
1 50 53 0 
1 -23 -76 0 
1 53 -38 0 
1 -105 -6 0 
1 -109 100 0 
1 86 -2 0 
1 101 -15 0 
1 32 -68 0 
1 -37 107 0 
1 -42 -9 0 
1 28 -52 0 
1 76 -39 0 
1 95 63 0 
1 106 104 0 
1 58 97 0 
1 27 21 0 
1 27 -107 0 
1 -55 -87 0 
1 34 -53 0 
1 7 50 0 
1 100 97 0 
1 -47 -15 0 
1 -72 27 0 
1 46 -37 0 
1 10 91 0 
1 -83 -81 0 
1 -104 -110 0 
1 16 -44 0 
1 36 -103 0 
1 107 -108 0 
1 1 -102 0 
1 69 86 0 
1 53 -58 0 
1 71 24 0 
1 -45 24 0 
1 -87 -63 0 
1 25 64 0 
1 -40 -65 0 
1 -36 -43 0 
1 96 -18 0 
1 95 -109 0 
1 -94 -48 0 
1 -21 111 0 
1 -95 45 0 
1 26 -35 0 
1 -50 60 0 
1 106 -102 0 
1 -40 14 0 
1 103 29 0 
1 -75 84 0 
1 -42 -79 0 
1 -101 78 0 
1 -87 -74 0 
